node 0 w: 6.16, h: 12.95
node 1 w: 4.9, h: 12.95
node 2 w: 8.2026-07-01 18:04:26 - INFO - Set parameter Username
2026-07-01 18:04:26 - INFO - Set parameter LicenseID to value 2840060
2026-07-01 18:04:26 - INFO - Academic license - for non-commercial use only - expires 2027-07-01
2026-07-01 18:04:26 - INFO - Set parameter TimeLimit to value 300
2026-07-01 18:04:26 - INFO - Set parameter MIPGap to value 0
2026-07-01 18:04:26 - INFO - Set parameter MIPFocus to value 3
2026-07-01 18:04:26 - INFO - Set parameter Heuristics to value 0.5
2026-07-01 18:04:26 - INFO - Set parameter LogToConsole to value 1
2026-07-01 18:04:26 - INFO - Gurobi Optimizer version 13.0.1 build v13.0.1rc0 (linux64 - "Ubuntu 20.04.6 LTS")
2026-07-01 18:04:26 - INFO - 
2026-07-01 18:04:26 - INFO - CPU model: AMD Ryzen 9 9950X3D 16-Core Processor, instruction set [SSE2|AVX|AVX2|AVX512]
2026-07-01 18:04:26 - INFO - Thread count: 14 physical cores, 28 logical processors, using up to 28 threads
2026-07-01 18:04:26 - INFO - 
2026-07-01 18:04:26 - INFO - Non-default parameters:
2026-07-01 18:04:26 - INFO - TimeLimit  300
2026-07-01 18:04:26 - INFO - MIPGap  0
2026-07-01 18:04:26 - INFO - Heuristics  0.5
2026-07-01 18:04:26 - INFO - MIPFocus  3
2026-07-01 18:04:26 - INFO - 
2026-07-01 18:04:26 - INFO - Optimize a model with 1455 rows, 665 columns and 4971 nonzeros (Min)
2026-07-01 18:04:26 - INFO - Model fingerprint: 0x5091bd06
2026-07-01 18:04:26 - INFO - Model has 4 linear objective coefficients
2026-07-01 18:04:26 - INFO - Variable types: 264 continuous, 401 integer (401 binary)
2026-07-01 18:04:26 - INFO - Coefficient statistics:
2026-07-01 18:04:26 - INFO -   Matrix range     [3e-01, 8e+03]
2026-07-01 18:04:26 - INFO -   Objective range  [9e-06, 8e-02]
2026-07-01 18:04:26 - INFO -   Bounds range     [9e-01, 2e+07]
2026-07-01 18:04:26 - INFO -   RHS range        [9e-01, 3e+02]
2026-07-01 18:04:26 - INFO - 
2026-07-01 18:04:26 - INFO - Presolve removed 121 rows and 105 columns
2026-07-01 18:04:26 - INFO - Presolve time: 0.01s
2026-07-01 18:04:26 - INFO - Presolved: 1334 rows, 560 columns, 4710 nonzeros
2026-07-01 18:04:26 - INFO - Variable types: 185 continuous, 375 integer (375 binary)
2026-07-01 18:04:26 - INFO - Root relaxation presolve removed 148 rows and 36 columns
2026-07-01 18:04:26 - INFO - Root relaxation presolved: 1186 rows, 548 columns, 4372 nonzeros
2026-07-01 18:04:26 - INFO - 
2026-07-01 18:04:26 - INFO - 
2026-07-01 18:04:26 - INFO - Root relaxation: objective -2.512836e+01, 295 iterations, 0.01 seconds (0.01 work units)
2026-07-01 18:04:26 - INFO - 
2026-07-01 18:04:26 - INFO -     Nodes    |    Current Node    |     Objective Bounds      |     Work
2026-07-01 18:04:26 - INFO -  Expl Unexpl |  Obj  Depth IntInf | Incumbent    BestBd   Gap | It/Node Time
2026-07-01 18:04:26 - INFO - 
2026-07-01 18:04:26 - INFO -      0     0  -25.12836    0  153          -  -25.12836      -     -    0s
2026-07-01 18:04:26 - INFO -      0     0  -14.69872    0  162          -  -14.69872      -     -    0s
2026-07-01 18:04:26 - INFO -      0     0  -14.69872    0  161          -  -14.69872      -     -    0s
2026-07-01 18:04:27 - INFO -      0     0  -14.69872    0  157          -  -14.69872      -     -    0s
2026-07-01 18:04:27 - INFO -      0     0   -8.85183    0  161          -   -8.85183      -     -    0s
2026-07-01 18:04:27 - INFO -      0     0   -8.85183    0  158          -   -8.85183      -     -    0s
2026-07-01 18:04:27 - INFO -      0     0   -8.85183    0  157          -   -8.85183      -     -    0s
2026-07-01 18:04:27 - INFO -      0     0   -8.85183    0  159          -   -8.85183      -     -    0s
2026-07-01 18:04:27 - INFO -      0     0   -8.85183    0  160          -   -8.85183      -     -    0s
2026-07-01 18:04:27 - INFO -      0     0   -8.85183    0  162          -   -8.85183      -     -    0s
2026-07-01 18:04:27 - INFO -      0     0   -8.85183    0  177          -   -8.85183      -     -    0s
2026-07-01 18:04:27 - INFO -      0     0   -8.85183    0  177          -   -8.85183      -     -    0s
2026-07-01 18:04:27 - INFO -      0     0   -8.85183    0  146          -   -8.85183      -     -    0s
2026-07-01 18:04:27 - INFO -      0     0    1.91741    0  154          -    1.91741      -     -    0s
2026-07-01 18:04:27 - INFO -      0     0    1.91741    0  156          -    1.91741      -     -    0s
2026-07-01 18:04:27 - INFO -      0     0    1.91741    0  159          -    1.91741      -     -    0s
2026-07-01 18:04:27 - INFO -      0     0    1.91741    0  160          -    1.91741      -     -    0s
2026-07-01 18:04:27 - INFO -      0     0    2.11199    0  160          -    2.11199      -     -    0s
2026-07-01 18:04:27 - INFO -      0     0    2.11199    0  154          -    2.11199      -     -    0s
2026-07-01 18:04:27 - INFO -      0     0    2.11199    0  138          -    2.11199      -     -    0s
2026-07-01 18:04:27 - INFO -      0     0    2.51062    0  138          -    2.51062      -     -    0s
2026-07-01 18:04:27 - INFO -      0     0    2.51062    0  133          -    2.51062      -     -    0s
2026-07-01 18:04:28 - INFO -      0     2    2.51062    0  133          -    2.51062      -     -    1s
2026-07-01 18:04:32 - INFO -   1961  1918    4.22422   10  160          -    3.78395      -  52.3    5s
2026-07-01 18:04:37 - INFO -   3603  2939    4.83681   27  150          -    4.62091      -   103   10s
2026-07-01 18:04:42 - INFO -   5828  4039    5.59817   26  122          -    4.76942      -   105   15s
2026-07-01 18:04:47 - INFO -  29736 14506    5.15935   24  117          -    5.14481      -  75.7   20s
2026-07-01 18:04:51 - INFO -  39644 17955    5.80520   29   86          -    5.27625      -  73.8   25s
2026-07-01 18:04:57 - INFO -  54025 23220    6.19721   29   98          -    5.39097      -  71.7   30s
2026-07-01 18:05:02 - INFO -  71496 28507    6.16363   29   94          -    5.53044      -  70.1   35s
2026-07-01 18:05:07 - INFO -  80501 30949    6.04683   25  116          -    5.60322      -  69.7   40s
2026-07-01 18:05:11 - INFO -  101060 35140    6.42927   33   91          -    5.76080      -  68.6   45s
2026-07-01 18:05:20 - INFO -  115128 43062    6.87964   29   65          -    5.88592      -  68.1   53s
2026-07-01 18:05:21 - INFO -  142298 43547    6.21957   27   83          -    6.04097      -  66.4   55s
2026-07-01 18:05:28 - INFO -  146153 46059 infeasible   35               -    6.06249      -  66.3   61s
2026-07-01 18:05:32 - INFO -  165774 47969    7.98447   31   32          -    6.22370      -  65.8   65s
2026-07-01 18:05:36 - INFO -  184321 50864 infeasible   30               -    6.37840      -  65.1   70s
2026-07-01 18:05:42 - INFO -  201643 54266 infeasible   29               -    6.48534      -  64.6   75s
2026-07-01 18:05:47 - INFO -  217819 56202    7.10221   34   78          -    6.59074      -  64.1   80s
2026-07-01 18:05:52 - INFO -  220598 56909    6.72706   28   73          -    6.62642      -  64.1   85s
2026-07-01 18:05:57 - INFO -  245362 60308    8.98674   32   44          -    6.78351      -  63.4   90s
2026-07-01 18:06:01 - INFO -  263268 62341 infeasible   35               -    6.88056      -  62.9   95s
2026-07-01 18:06:06 - INFO -  274130 63592 infeasible   32               -    6.94618      -  62.7  100s
2026-07-01 18:06:12 - INFO -  292817 64947    7.91393   28   75          -    7.02243      -  62.3  105s
2026-07-01 18:06:17 - INFO -  309011 66366 infeasible   37               -    7.12475      -  62.0  110s
2026-07-01 18:06:21 - INFO -  312870 66528    7.54725   27   59          -    7.16136      -  62.0  115s
2026-07-01 18:06:27 - INFO -  326574 67431    8.25776   34   81          -    7.21683      -  61.7  120s
2026-07-01 18:06:32 - INFO -  346846 68789 infeasible   31               -    7.32898      -  61.2  125s
2026-07-01 18:06:37 - INFO -  371792 69579    7.81776   33  106          -    7.44356      -  60.7  130s
2026-07-01 18:06:42 - INFO -  375260 68152 infeasible   35               -    7.47485      -  60.6  135s
2026-07-01 18:06:47 - INFO -  394543 68088 infeasible   34               -    7.53712      -  60.0  140s
2026-07-01 18:06:51 - INFO -  398574 68122    8.25143   32   71          -    7.55793      -  60.0  145s
2026-07-01 18:06:57 - INFO -  425356 68292 infeasible   34               -    7.69017      -  59.5  150s
2026-07-01 18:07:02 - INFO -  445644 67841    8.78043   32   48          -    7.80528      -  59.2  155s
2026-07-01 18:07:07 - INFO -  464608 67542 infeasible   38               -    7.90572      -  59.0  160s
2026-07-01 18:07:12 - INFO -  477766 66948   10.66127   36   41          -    7.96523      -  58.7  165s
2026-07-01 18:07:17 - INFO -  487686 66655    8.03425   30   66          -    8.03425      -  58.6  170s
2026-07-01 18:07:22 - INFO -  495299 65978 infeasible   36               -    8.05738      -  58.5  175s
2026-07-01 18:07:27 - INFO -  515857 64780 infeasible   36               -    8.19129      -  58.2  180s
2026-07-01 18:07:32 - INFO -  542097 63148 infeasible   36               -    8.34068      -  57.8  185s
2026-07-01 18:07:37 - INFO -  548430 62218 infeasible   35               -    8.39050      -  57.8  190s
2026-07-01 18:07:42 - INFO -  556847 61479 infeasible   33               -    8.43190      -  57.7  195s
2026-07-01 18:07:46 - INFO -  572809 59242    9.20167   34   63          -    8.54034      -  57.4  200s
2026-07-01 18:07:52 - INFO -  598748 55739 infeasible   31               -    8.71394      -  57.0  205s
2026-07-01 18:07:57 - INFO -  613494 53051 infeasible   39               -    8.81210      -  56.8  210s
2026-07-01 18:08:02 - INFO -  635783 48539 infeasible   42               -    9.01585      -  56.5  215s
2026-07-01 18:08:07 - INFO -  655935 44706 infeasible   32               -    9.19426      -  56.2  220s
2026-07-01 18:08:12 - INFO -  657272 44004 infeasible   35               -    9.22782      -  56.3  225s
2026-07-01 18:08:17 - INFO -  673945 38740 infeasible   35               -    9.36647      -  56.0  230s
2026-07-01 18:08:22 - INFO -  699109 31068 infeasible   32               -    9.68670      -  55.7  235s
2026-07-01 18:08:27 - INFO -  713595 25542 infeasible   38               -    9.85778      -  55.5  240s
2026-07-01 18:08:32 - INFO -  739837 13865 infeasible   33               -   10.46877      -  55.1  245s
2026-07-01 18:08:36 - INFO -  753988  8005 infeasible   35               -   11.04155      -  54.9  250s
2026-07-01 18:08:42 - INFO -  755905  6868 infeasible   43               -   11.31187      -  54.8  255s
2026-07-01 18:08:47 - INFO -  757895  3796 infeasible   38               -   11.44370      -  54.8  260s
2026-07-01 18:08:49 - INFO - 
2026-07-01 18:08:49 - INFO - Cutting planes:
2026-07-01 18:08:49 - INFO -   Learned: 65
2026-07-01 18:08:49 - INFO -   Gomory: 240
2026-07-01 18:08:49 - INFO -   Lift-and-project: 108
2026-07-01 18:08:49 - INFO -   Cover: 31
2026-07-01 18:08:49 - INFO -   Implied bound: 3
2026-07-01 18:08:49 - INFO -   MIR: 145
2026-07-01 18:08:49 - INFO -   Mixing: 2
2026-07-01 18:08:49 - INFO -   StrongCG: 3
2026-07-01 18:08:49 - INFO -   Flow cover: 878
2026-07-01 18:08:49 - INFO -   Inf proof: 253
2026-07-01 18:08:49 - INFO -   RLT: 4
2026-07-01 18:08:49 - INFO -   Relax-and-lift: 4
2026-07-01 18:08:49 - INFO - 
2026-07-01 18:08:49 - INFO - Explored 765353 nodes (41787053 simplex iterations) in 262.40 seconds (470.18 work units)
2026-07-01 18:08:49 - INFO - Thread count was 28 (of 28 available processors)
2026-07-01 18:08:49 - INFO - 
2026-07-01 18:08:49 - INFO - Solution count 0
2026-07-01 18:08:49 - INFO - 
2026-07-01 18:08:49 - INFO - Model is infeasible or unbounded
2026-07-01 18:08:49 - INFO - Best objective -, best bound -, gap -
2026-07-01 18:08:49 - INFO - Set parameter TimeLimit to value 300
2026-07-01 18:08:49 - INFO - Set parameter MIPGap to value 0.3
2026-07-01 18:08:49 - INFO - Set parameter MIPFocus to value 3
2026-07-01 18:08:49 - INFO - Set parameter Heuristics to value 0.5
2026-07-01 18:08:49 - INFO - Set parameter LogToConsole to value 1
2026-07-01 18:08:49 - INFO - Gurobi Optimizer version 13.0.1 build v13.0.1rc0 (linux64 - "Ubuntu 20.04.6 LTS")
2026-07-01 18:08:49 - INFO - 
2026-07-01 18:08:49 - INFO - CPU model: AMD Ryzen 9 9950X3D 16-Core Processor, instruction set [SSE2|AVX|AVX2|AVX512]
2026-07-01 18:08:49 - INFO - Thread count: 14 physical cores, 28 logical processors, using up to 28 threads
2026-07-01 18:08:49 - INFO - 
2026-07-01 18:08:49 - INFO - Non-default parameters:
2026-07-01 18:08:49 - INFO - TimeLimit  300
2026-07-01 18:08:49 - INFO - MIPGap  0.3
2026-07-01 18:08:49 - INFO - Heuristics  0.5
2026-07-01 18:08:49 - INFO - MIPFocus  3
2026-07-01 18:08:49 - INFO - 
2026-07-01 18:08:49 - INFO - Optimize a model with 1455 rows, 665 columns and 4971 nonzeros (Min)
2026-07-01 18:08:49 - INFO - Model fingerprint: 0x5091bd06
2026-07-01 18:08:49 - INFO - Model has 4 linear objective coefficients
2026-07-01 18:08:49 - INFO - Variable types: 264 continuous, 401 integer (401 binary)
2026-07-01 18:08:49 - INFO - Coefficient statistics:
2026-07-01 18:08:49 - INFO -   Matrix range     [3e-01, 8e+03]
2026-07-01 18:08:49 - INFO -   Objective range  [9e-06, 8e-02]
2026-07-01 18:08:49 - INFO -   Bounds range     [9e-01, 2e+07]
2026-07-01 18:08:49 - INFO -   RHS range        [9e-01, 3e+02]
2026-07-01 18:08:49 - INFO - 
2026-07-01 18:08:49 - INFO - Presolved: 1334 rows, 560 columns, 4710 nonzeros
2026-07-01 18:08:49 - INFO - 
2026-07-01 18:08:49 - INFO - Continuing optimization...
2026-07-01 18:08:49 - INFO - 
2026-07-01 18:08:49 - INFO - 
2026-07-01 18:08:49 - INFO - Cutting planes:
2026-07-01 18:08:49 - INFO -   Learned: 65
2026-07-01 18:08:49 - INFO -   Gomory: 240
2026-07-01 18:08:49 - INFO -   Lift-and-project: 108
2026-07-01 18:08:49 - INFO -   Cover: 31
2026-07-01 18:08:49 - INFO -   Implied bound: 3
2026-07-01 18:08:49 - INFO -   MIR: 145
2026-07-01 18:08:49 - INFO -   Mixing: 2
2026-07-01 18:08:49 - INFO -   StrongCG: 3
2026-07-01 18:08:49 - INFO -   Flow cover: 878
2026-07-01 18:08:49 - INFO -   Inf proof: 253
2026-07-01 18:08:49 - INFO -   RLT: 4
2026-07-01 18:08:49 - INFO -   Relax-and-lift: 4
2026-07-01 18:08:49 - INFO - 
2026-07-01 18:08:49 - INFO - Explored 765353 nodes (41787053 simplex iterations) in 262.42 seconds (470.18 work units)
2026-07-01 18:08:49 - INFO - Most recent optimization runtime was 0.01 seconds (0.00 work units)
2026-07-01 18:08:49 - INFO - Thread count was 28 (of 28 available processors)
2026-07-01 18:08:49 - INFO - 
2026-07-01 18:08:49 - INFO - Solution count 0
2026-07-01 18:08:49 - INFO - 
2026-07-01 18:08:49 - INFO - Model is infeasible or unbounded
2026-07-01 18:08:49 - INFO - Best objective -, best bound -, gap -
2026-07-01 18:08:49 - INFO - Set parameter TimeLimit to value 3600
2026-07-01 18:08:49 - INFO - Set parameter MIPGap to value 0.8
2026-07-01 18:08:49 - INFO - Set parameter MIPFocus to value 3
2026-07-01 18:08:49 - INFO - Set parameter Heuristics to value 0.5
2026-07-01 18:08:49 - INFO - Set parameter LogToConsole to value 1
2026-07-01 18:08:49 - INFO - Gurobi Optimizer version 13.0.1 build v13.0.1rc0 (linux64 - "Ubuntu 20.04.6 LTS")
2026-07-01 18:08:49 - INFO - 
2026-07-01 18:08:49 - INFO - CPU model: AMD Ryzen 9 9950X3D 16-Core Processor, instruction set [SSE2|AVX|AVX2|AVX512]
2026-07-01 18:08:49 - INFO - Thread count: 14 physical cores, 28 logical processors, using up to 28 threads
2026-07-01 18:08:49 - INFO - 
2026-07-01 18:08:49 - INFO - Non-default parameters:
2026-07-01 18:08:49 - INFO - TimeLimit  3600
2026-07-01 18:08:49 - INFO - MIPGap  0.8
2026-07-01 18:08:49 - INFO - Heuristics  0.5
2026-07-01 18:08:49 - INFO - MIPFocus  3
2026-07-01 18:08:49 - INFO - 
2026-07-01 18:08:49 - INFO - Optimize a model with 1455 rows, 665 columns and 4971 nonzeros (Min)
2026-07-01 18:08:49 - INFO - Model fingerprint: 0x5091bd06
2026-07-01 18:08:49 - INFO - Model has 4 linear objective coefficients
2026-07-01 18:08:49 - INFO - Variable types: 264 continuous, 401 integer (401 binary)
2026-07-01 18:08:49 - INFO - Coefficient statistics:
2026-07-01 18:08:49 - INFO -   Matrix range     [3e-01, 8e+03]
2026-07-01 18:08:49 - INFO -   Objective range  [9e-06, 8e-02]
2026-07-01 18:08:49 - INFO -   Bounds range     [9e-01, 2e+07]
2026-07-01 18:08:49 - INFO -   RHS range        [9e-01, 3e+02]
2026-07-01 18:08:49 - INFO - 
2026-07-01 18:08:49 - INFO - Presolved: 1334 rows, 560 columns, 4710 nonzeros
2026-07-01 18:08:49 - INFO - 
2026-07-01 18:08:49 - INFO - Continuing optimization...
2026-07-01 18:08:49 - INFO - 
2026-07-01 18:08:49 - INFO - 
2026-07-01 18:08:49 - INFO - Cutting planes:
2026-07-01 18:08:49 - INFO -   Learned: 65
2026-07-01 18:08:49 - INFO -   Gomory: 240
2026-07-01 18:08:49 - INFO -   Lift-and-project: 108
2026-07-01 18:08:49 - INFO -   Cover: 31
2026-07-01 18:08:49 - INFO -   Implied bound: 3
2026-07-01 18:08:49 - INFO -   MIR: 145
2026-07-01 18:08:49 - INFO -   Mixing: 2
2026-07-01 18:08:49 - INFO -   StrongCG: 3
2026-07-01 18:08:49 - INFO -   Flow cover: 878
2026-07-01 18:08:49 - INFO -   Inf proof: 253
2026-07-01 18:08:49 - INFO -   RLT: 4
2026-07-01 18:08:49 - INFO -   Relax-and-lift: 4
2026-07-01 18:08:49 - INFO - 
2026-07-01 18:08:49 - INFO - Explored 765353 nodes (41787053 simplex iterations) in 262.42 seconds (470.19 work units)
2026-07-01 18:08:49 - INFO - Most recent optimization runtime was 0.00 seconds (0.00 work units)
2026-07-01 18:08:49 - INFO - Thread count was 28 (of 28 available processors)
2026-07-01 18:08:49 - INFO - 
2026-07-01 18:08:49 - INFO - Solution count 0
2026-07-01 18:08:49 - INFO - 
2026-07-01 18:08:49 - INFO - Model is infeasible or unbounded
2026-07-01 18:08:49 - INFO - Best objective -, best bound -, gap -
2026-07-01 18:08:49 - INFO - 
EMIB returned 0 solution(s) (max 1).
 260s

Cutting planes:
  Learned: 65
  Gomory: 240
  Lift-and-project: 108
  Cover: 31
  Implied bound: 3
  MIR: 145
  Mixing: 2
  StrongCG: 3
  Flow cover: 878
  Inf proof: 253
  RLT: 4
  Relax-and-lift: 4

Explored 765353 nodes (41787053 simplex iterations) in 262.40 seconds (470.18 work units)
Thread count was 28 (of 28 available processors)

Solution count 0

Model is infeasible or unbounded
Best objective -, best bound -, gap -
[EMIB] No feasible solution: MIPGap=0.0, status=4, time=262.41s, SolCount=0
[EMIB] Phase 1 no feasible solution, switching to phase 2 MIPGap=0.3.
Set parameter TimeLimit to value 300
Set parameter MIPGap to value 0.3
Set parameter MIPFocus to value 3
Set parameter Heuristics to value 0.5
Set parameter LogToConsole to value 1
Gurobi Optimizer version 13.0.1 build v13.0.1rc0 (linux64 - "Ubuntu 20.04.6 LTS")

CPU model: AMD Ryzen 9 9950X3D 16-Core Processor, instruction set [SSE2|AVX|AVX2|AVX512]
Thread count: 14 physical cores, 28 logical processors, using up to 28 threads

Non-default parameters:
TimeLimit  300
MIPGap  0.3
Heuristics  0.5
MIPFocus  3

Optimize a model with 1455 rows, 665 columns and 4971 nonzeros (Min)
Model fingerprint: 0x5091bd06
Model has 4 linear objective coefficients
Variable types: 264 continuous, 401 integer (401 binary)
Coefficient statistics:
  Matrix range     [3e-01, 8e+03]
  Objective range  [9e-06, 8e-02]
  Bounds range     [9e-01, 2e+07]
  RHS range        [9e-01, 3e+02]

Presolved: 1334 rows, 560 columns, 4710 nonzeros

Continuing optimization...


Cutting planes:
  Learned: 65
  Gomory: 240
  Lift-and-project: 108
  Cover: 31
  Implied bound: 3
  MIR: 145
  Mixing: 2
  StrongCG: 3
  Flow cover: 878
  Inf proof: 253
  RLT: 4
  Relax-and-lift: 4

Explored 765353 nodes (41787053 simplex iterations) in 262.42 seconds (470.18 work units)
Most recent optimization runtime was 0.01 seconds (0.00 work units)
Thread count was 28 (of 28 available processors)

Solution count 0

Model is infeasible or unbounded
Best objective -, best bound -, gap -
[EMIB] No feasible solution: MIPGap=0.3, status=4, time=0.01s, SolCount=0
[EMIB] Phase 2 no feasible solution, switching to phase 3 MIPGap=0.8.
Set parameter TimeLimit to value 3600
Set parameter MIPGap to value 0.8
Set parameter MIPFocus to value 3
Set parameter Heuristics to value 0.5
Set parameter LogToConsole to value 1
Gurobi Optimizer version 13.0.1 build v13.0.1rc0 (linux64 - "Ubuntu 20.04.6 LTS")

CPU model: AMD Ryzen 9 9950X3D 16-Core Processor, instruction set [SSE2|AVX|AVX2|AVX512]
Thread count: 14 physical cores, 28 logical processors, using up to 28 threads

Non-default parameters:
TimeLimit  3600
MIPGap  0.8
Heuristics  0.5
MIPFocus  3

Optimize a model with 1455 rows, 665 columns and 4971 nonzeros (Min)
Model fingerprint: 0x5091bd06
Model has 4 linear objective coefficients
Variable types: 264 continuous, 401 integer (401 binary)
Coefficient statistics:
  Matrix range     [3e-01, 8e+03]
  Objective range  [9e-06, 8e-02]
  Bounds range     [9e-01, 2e+07]
  RHS range        [9e-01, 3e+02]

Presolved: 1334 rows, 560 columns, 4710 nonzeros

Continuing optimization...


Cutting planes:
  Learned: 65
  Gomory: 240
  Lift-and-project: 108
  Cover: 31
  Implied bound: 3
  MIR: 145
  Mixing: 2
  StrongCG: 3
  Flow cover: 878
  Inf proof: 253
  RLT: 4
  Relax-and-lift: 4

Explored 765353 nodes (41787053 simplex iterations) in 262.42 seconds (470.19 work units)
Most recent optimization runtime was 0.00 seconds (0.00 work units)
Thread count was 28 (of 28 available processors)

Solution count 0

Model is infeasible or unbounded
Best objective -, best bound -, gap -
[EMIB] No feasible solution: MIPGap=0.8, status=4, time=0.00s, SolCount=0
[EMIB] Search failed, no feasible solution
  ✓ EMIB: 0 solution(s)
